2 15 43 42 87 97 59 99 96 6 
52 31 88 7 82 48 19 11 64 49 36 47 46 8 60 89 
27 69 33 81 9 35 34 78 79 3 77 68 54 4 56 74 22 41 57 100 91 37 13 58 
94 95 92 98 44 14 38 86 16 61 85 93 5 84 17 45 83 18 
28 12 76 50 51 71 65 66 20 30 10 62 63 90 32 70 1 
53 40 21 73 72 75 23 67 39 25 55 24 29 80 26 
